%chk=H2O.chk
# Opt(maxcycle=100) Freq B3LYP/6-31G(d,p) em=GD3BJ

Calculated H2O Energy

0 1
 O                 -1.91852827    1.33377133    0.00000000
 H                 -0.95852827    1.33377133    0.00000000
 H                 -2.23898285    2.23870716    0.00000000

